20	3
9	5	5	
0	0	0	0	11	2	3	4	5	6	7	8	10	13	16	19	
17	4	2	2	1	17	
980	4	2	2	2	17	11	
962	2	2	2	1	20	
17	2	2	2	1	20	
19	3	2	2	2	9	12	
261	4	2	2	1	14	
14	4	2	2	1	20	
10	4	2	2	1	20	
306	2	2	2	2	12	15	
598	2	2	2	1	18	
15	2	2	2	1	20	
396	2	2	2	1	17	
388	2	2	2	1	20	
8	4	2	2	1	20	
12	5	2	2	1	20	
15	2	2	2	1	20	
943	2	2	2	1	20	
13	2	2	2	1	20	
0	0	0	0	0	